n = 50;
C = 5862;
w = [485,442,259,245,471,242,28,88,238,408,198,214,296,204,266,123,54,187,119,323,456,249,92,63,49,126,92,129,72,329,150,240,221,80,433,226,426,2,454,421,78,176,304,266,429,61,335,397,5,474];
p = [478,406,268,223,516,253,-14,91,236,358,156,204,330,210,248,156,93,169,138,276,409,259,133,111,23,107,125,157,81,320,157,190,193,116,397,274,475,5,419,441,47,203,350,256,441,46,360,351,52,438];
